
  17    4
  10   10   10   10

   0   0   0   0   0   4 2 6 7 12 
   4  10  10  10  10   2 5 3 
  10  10  10  10  10   2 11 4 
   8  10  10  10  10   4 16 15 9 8 
  10  10  10  10  10   4 16 15 11 8 
   8  10  10  10  10   4 16 15 9 8 
   1  10  10  10  10   3 15 14 13 
   1  10  10  10  10   2 14 10 
   6  10  10  10  10   2 14 13 
   8  10  10  10  10   1 13 
  10  10  10  10  10   1 14 
   1  10  10  10  10   1 13 
   8  10  10  10  10   1 17
   8  10  10  10  10   1 17
   1  10  10  10  10   1 17
   5  10  10  10  10   1 17
   0   0   0   0   0   0 
